Selected objective sense:  MINIMIZE
Selected objective  name:  OBJ
Selected RHS        name:  RHS1
CPXPARAM_Preprocessing_Presolve                  0
CPXPARAM_LPMethod                                4
CPXPARAM_Threads                                 1
CPXPARAM_SolutionType                            2
CPXPARAM_TimeLimit                               3600
Tried aggregator 0 times.
DUAL formed by presolve
Reduced presolve eliminated 1492 rows and 4249 columns.
Reduced LP has 8189 rows, 3713 columns, and 410501 nonzeros.
Presolve time = 0.16 sec. (140.71 ticks)
Parallel mode: none, using 1 thread for barrier

***NOTE: Found 52 dense columns.

Number of nonzeros in lower triangle of A*A' = 7210
Using Approximate Minimum Degree ordering
Total time for automatic ordering = 0.00 sec. (1.32 ticks)
Summary statistics for Cholesky factor:
  Rows in Factor            = 8241
  Integer space required    = 195490
  Total non-zeros in factor = 439630
  Total FP ops to factor    = 23573820
 Itn      Primal Obj        Dual Obj  Prim Inf Upper Inf  Dual Inf Inf Ratio
   0  -3.4329640e+06   9.6942250e+05  5.14e+06  8.18e+02  5.06e+05  1.00e+00
   1  -6.3761732e+05   2.0442908e+05  6.71e+05  1.07e+02  1.80e+05  2.87e-03
   2  -1.8235328e+05   3.3915546e+04  1.68e+05  2.68e+01  4.91e+04  1.07e-02
   3  -6.2598078e+04   5.5864876e+03  6.00e+04  9.56e+00  3.00e+03  1.84e-02
   4  -1.8548328e+04   4.7826442e+03  1.76e+04  2.81e+00  2.59e+03  2.75e-02
   5  -7.3912051e+03   9.3503529e+02  6.89e+03  1.10e+00  6.10e+02  1.21e-01
   6  -1.4669848e+03  -9.9164489e+01  1.15e+03  1.84e-01  8.89e+01  8.54e-01
   7  -5.6536737e+02  -2.3077897e+02  2.44e+02  3.89e-02  3.66e+01  2.24e+00
   8  -4.1811122e+02  -2.8373126e+02  7.23e+01  1.15e-02  2.11e+01  4.50e+00
   9  -4.0271770e+02  -2.9086353e+02  5.73e+01  9.12e-03  1.86e+01  5.33e+00
  10  -3.8873256e+02  -3.1057698e+02  4.12e+01  6.56e-03  1.27e+01  9.14e+00
  11  -3.6879281e+02  -3.3036355e+02  1.96e+01  3.12e-03  6.44e+00  2.04e+01
  12  -3.5981807e+02  -3.3638032e+02  9.88e+00  1.57e-03  4.53e+00  3.34e+01
  13  -3.5519040e+02  -3.4281385e+02  4.85e+00  7.72e-04  2.50e+00  7.79e+01
  14  -3.5371663e+02  -3.4364601e+02  3.82e+00  6.08e-04  2.12e+00  9.73e+01
  15  -3.5286258e+02  -3.4533836e+02  3.08e+00  4.91e-04  1.48e+00  1.60e+02
  16  -3.5201539e+02  -3.4546504e+02  2.39e+00  3.80e-04  1.43e+00  1.68e+02
  17  -3.5157763e+02  -3.4564071e+02  1.97e+00  3.13e-04  1.37e+00  1.78e+02
  18  -3.5052829e+02  -3.4634691e+02  9.88e-01  1.57e-04  1.12e+00  2.34e+02
  19  -3.5006375e+02  -3.4680237e+02  5.23e-01  8.33e-05  9.57e-01  2.88e+02
  20  -3.4960652e+02  -3.4763112e+02  1.69e-01  2.70e-05  6.50e-01  4.53e+02
  21  -3.4955897e+02  -3.4797074e+02  1.23e-01  1.96e-05  5.28e-01  6.01e+02
  22  -3.4944831e+02  -3.4808588e+02  3.42e-02  5.44e-06  4.85e-01  6.72e+02
  23  -3.4943491e+02  -3.4823199e+02  2.59e-02  4.12e-06  4.31e-01  7.87e+02
  24  -3.4941319e+02  -3.4851861e+02  1.42e-02  2.27e-06  3.24e-01  1.16e+03
  25  -3.4936143e+02  -3.4891809e+02  6.55e-03  1.04e-06  1.62e-01  2.65e+03
  26  -3.4935430e+02  -3.4895808e+02  5.32e-03  8.47e-07  1.46e-01  3.03e+03
  27  -3.4933928e+02  -3.4903390e+02  3.22e-03  5.13e-07  1.15e-01  4.18e+03
  28  -3.4932607e+02  -3.4910455e+02  1.71e-03  2.72e-07  8.57e-02  6.24e+03
  29  -3.4932143e+02  -3.4914669e+02  1.43e-03  2.28e-07  6.70e-02  8.12e+03
  30  -3.4930749e+02  -3.4925367e+02  7.01e-04  1.12e-07  1.84e-02  3.06e+04
  31  -3.4929855e+02  -3.4928044e+02  2.28e-04  3.64e-08  6.25e-03  1.14e+05
  32  -3.4929503e+02  -3.4929170e+02  5.49e-05  8.74e-09  1.03e-03  1.60e+06
  33  -3.4929423e+02  -3.4929362e+02  1.95e-05  3.10e-09  7.96e-05  2.52e+07
  34  -3.4929384e+02  -3.4929378e+02  2.02e-06  3.22e-10  4.18e-06  4.77e+08
  35  -3.4929379e+02  -3.4929379e+02  1.02e-07  1.62e-11  2.39e-07  8.42e+09
Barrier time = 0.91 sec. (1434.53 ticks)

Total time on 1 threads = 0.91 sec. (1434.53 ticks)
Solve time: 0.912657319
Barrier iterations: 35
